18 965
525 7 504 7 362 7 209 9 25 11 818 15 619 21
525 7 482 7 362 7 118 9 855 11 676 18
525 7 482 7 362 7 201 9 13 11 819 18
525 7 479 7 359 7 214 9 32 11 788 18
525 7 484 7 368 7 123 9 859 11 681 18
525 7 482 7 362 7 118 9 855 11 673 18
525 7 482 7 365 7 115 9 943 13
525 7 446 7 267 7 66 9 891 11 731 18
536 7 513 7 437 11
535 8 494 8 422 11
528 7 496 7 382 7 220 12
525 7 479 7 355 7 106 9 927 13
525 7 479 7 355 7 106 9 927 13
525 7 479 7 355 7 106 9 927 13
525 7 504 7 362 7 209 9 25 11 818 15 624 21
525 7 504 7 362 7 209 9 25 11 818 15 624 21
525 7 445 7 264 7 63 9 889 11 721 18
525 7 445 7 264 7 63 9 889 11 721 18
